&CONTROL
   calculation      = 'scf'
   verbosity        = 'high'
   restart_mode     = 'from_scratch'
   wf_collect       = .true.
   tstress          = .true.
   tprnfor          = .true.
   outdir           = './out/'
   prefix           = 'ni'
   etot_conv_thr    = 0.00025
   forc_conv_thr    = 2e-05
   pseudo_dir       = '/home/lopanits/pseudo/'
/
&SYSTEM
   ibrav            = 0
   ntyp             = 1
   nbnd             = 648
   ecutwfc          = 40
   ecutrho          = 400
   nosym            = .true.
   occupations      = 'smearing'
   degauss          = 0.0441
   smearing         = 'mp'
   nat              = 108
/
&ELECTRONS
   electron_maxstep = 400
   conv_thr         = 1e-12
   mixing_mode      = 'local-TF'
   mixing_beta      = 0.4
   diagonalization  = 'david'
/
&IONS
/
&CELL
/

ATOMIC_SPECIES
Ni 58.6934 Ni.pbe-n-rrkjus_psl.0.1.UPF

K_POINTS automatic
8 8 8  0 0 0

CELL_PARAMETERS angstrom
10.87479800000000 0.00000000000000 0.00000000000000
0.00000000000000 10.87479800000000 0.00000000000000
0.00000000000000 0.00000000000000 10.87479800000000

ATOMIC_POSITIONS angstrom
Ni 6.9187400000 8.7753000000 4.5596400000 
Ni 0.7075150000 0.8607220000 4.3196800000 
Ni 4.5532100000 7.4677300000 1.9797800000 
Ni 5.1132200000 9.7974700000 2.8200800000 
Ni 2.4377400000 9.5196000000 5.1777200000 
Ni 7.3815400000 7.9861100000 10.5196000000 
Ni 0.3037370000 6.3894100000 10.8482150000 
Ni 5.2110900000 6.4013100000 7.5525000000 
Ni 2.9043900000 0.9027610000 5.9113200000 
Ni 1.0993800000 2.9159900000 3.0977200000 
Ni 3.0559700000 7.3574400000 8.5754100000 
Ni 0.5460000000 10.2928000000 5.9572100000 
Ni 4.9667600000 2.8487800000 10.5823000000 
Ni 9.4858800000 6.1598100000 6.6213900000 
Ni 9.3580500000 10.8320000000 4.6482400000 
Ni 9.5211800000 8.7189300000 3.7234700000 
Ni 0.2388130000 4.8383100000 6.2052400000 
Ni 0.5929850000 8.1115000000 5.2280700000 
Ni 7.2890900000 5.5206300000 6.8103300000 
Ni 4.8735200000 6.8374000000 10.5132000000 
Ni 7.4271900000 8.7701600000 2.0348600000 
Ni 9.5083000000 7.5961500000 1.1397500000 
Ni 5.2910400000 0.2765080000 9.7629900000 
Ni 5.0179500000 1.0019600000 1.3108700000 
Ni 9.0413100000 3.9296100000 6.1932700000 
Ni 4.4332600000 10.7123000000 7.6094200000 
Ni 9.5054700000 9.9348500000 1.8003400000 
Ni 6.9593800000 5.6597200000 9.2921700000 
Ni 7.0187500000 10.4600000000 0.6154250000 
Ni 0.6587760000 6.8966500000 7.4993600000 
Ni 5.4816600000 8.3431000000 9.1416100000 
Ni 8.7109800000 10.8244000000 7.2336600000 
Ni 9.7319500000 2.0890700000 8.4428800000 
Ni 9.4745000000 0.8033720000 10.8419000000 
Ni 3.1515300000 9.5502000000 9.5279700000 
Ni 9.1581500000 4.5329400000 8.2342200000 
Ni 3.2259700000 10.1490000000 1.4407200000 
Ni 0.3404790000 8.2829500000 9.0501400000 
Ni 7.1316500000 3.6995100000 0.0731380000 
Ni 6.0661700000 4.0779800000 4.4908300000 
Ni 7.7036400000 2.2015100000 6.9212100000 
Ni 7.9557400000 10.0017000000 9.3694000000 
Ni 4.8290800000 10.4361000000 5.2681000000 
Ni 5.5736300000 4.0794800000 6.6556900000 
Ni 7.0518000000 1.5770500000 10.1002000000 
Ni 4.1654400000 5.8955600000 4.7680900000 
Ni 0.7965580000 3.1656200000 8.0771800000 
Ni 6.5635200000 3.6604200000 8.6227300000 
Ni 2.7752500000 5.1147300000 7.1158300000 
Ni 6.9648500000 5.9837200000 1.1086500000 
Ni 3.1596000000 4.1128700000 2.9794900000 
Ni 7.6296600000 7.7710300000 8.1379800000 
Ni 6.5647800000 6.7641600000 5.2772400000 
Ni 6.7216300000 0.3244050000 7.8957500000 
Ni 3.8955200000 2.7319100000 4.5799200000 
Ni 2.5790400000 7.3512600000 3.3230800000 
Ni 8.2995800000 6.7740400000 2.9013900000 
Ni 4.3610400000 4.7101300000 8.8623900000 
Ni 5.8677200000 1.5621800000 3.7319400000 
Ni 3.1547900000 0.8519880000 10.6761000000 
Ni 7.1380800000 0.2498970000 5.5637300000 
Ni 0.5923360000 10.4713000000 10.3864000000 
Ni 8.8389700000 3.2319800000 10.0709000000 
Ni 0.4041210000 7.5032600000 2.6435000000 
Ni 0.9839680000 0.8199300000 1.4968500000 
Ni 10.3668000000 6.3178500000 4.3728800000 
Ni 5.3947100000 2.1275800000 8.4098100000 
Ni 1.5307100000 2.5979400000 5.2922700000 
Ni 5.5545600000 3.3563200000 2.3141200000 
Ni 7.9548900000 0.0554597000 3.1793900000 
Ni 6.2904000000 8.7440700000 6.6479300000 
Ni 8.7062200000 7.7838400000 5.6323700000 
Ni 10.0777000000 1.9505900000 6.0119100000 
Ni 0.8332670000 2.1298200000 10.5178000000 
Ni 10.2657000000 3.6065300000 4.2434200000 
Ni 1.4310900000 3.9105900000 0.9051510000 
Ni 9.3148200000 9.2504200000 10.5768000000 
Ni 1.5224700000 4.9532900000 4.2546900000 
Ni 9.8387000000 8.8879100000 7.1943000000 
Ni 2.5550200000 7.4721500000 5.9426800000 
Ni 1.9544400000 5.2928500000 9.2963100000 
Ni 7.9295200000 1.8055800000 1.4896600000 
Ni 9.9608500000 1.8989500000 2.5819700000 
Ni 8.0623600000 4.2290300000 2.3423600000 
Ni 2.4896800000 0.9471040000 8.6604900000 
Ni 4.1010000000 8.5357600000 6.8328500000 
Ni 3.0867600000 0.2926340000 3.5459300000 
Ni 1.8473100000 5.7380900000 1.7796200000 
Ni 3.3177900000 2.6314900000 7.1466100000 
Ni 0.1331800000 4.5258300000 9.6569200000 
Ni 1.0264700000 9.7826400000 3.1979700000 
Ni 2.7790500000 7.3061900000 0.1790950000 
Ni 5.8100800000 5.7762800000 3.2084900000 
Ni 4.4530600000 8.1924200000 4.4418400000 
Ni 8.3584200000 5.1452200000 4.4479500000 
Ni 0.0523591000 0.0463468000 8.2515000000 
Ni 2.1371100000 9.6013600000 7.4973300000 
Ni 5.0461200000 9.1653900000 0.3537320000 
Ni 10.4922000000 5.1946200000 2.4411800000 
Ni 8.0206000000 2.3006000000 4.3518900000 
Ni 2.4830700000 3.0773600000 9.6570500000 
Ni 8.9610000000 5.4040800000 0.2383580000 
Ni 9.4536200000 6.6524400000 8.9505600000 
Ni 3.5431400000 4.9384000000 0.3853520000 
Ni 0.9530290000 8.7957300000 0.7240050000 
Ni 10.1012000000 3.5003100000 1.0560400000 
Ni 5.3809400000 1.7225600000 6.0643900000 
Ni 3.1208000000 2.2165000000 1.7424200000 

